lbl,CUST NO.,READY TIME,XCOORD.,YCOORD.,DEMAND,DUE DATE,SERVICE TIME
19,255,145,41,186,27,155,10
19,3,185,39,186,5,195,10
19,374,279,32,190,13,289,10
19,112,297,30,183,9,307,10
19,387,319,38,183,10,329,10
19,299,363,23,176,20,373,10
19,356,409,6,193,13,419,10
19,231,432,37,177,21,442,10
19,239,488,24,197,17,498,10
19,254,509,28,187,16,519,10
19,371,581,26,197,17,591,10
19,365,611,15,197,10,621,10
